\ENCODING=ISO-8859-1
\Problem name: ilog.cplex

Minimize
 obj1: 97062 x1 + 105584 x2 + 102598 x3 + 91158 x4 + 96914 x5 + 96523 x6
       + 92817 x7 + 90786 x8 + 105687 x9 + 95737 x10 + 99116 x11 + 94542 x12
       + 100945 x13 + 98098 x14 + 103185 x15 + 94124 x16 + 98782 x17
       + 107645 x18 + 101718 x19 + 100919 x20 + 108545 x21 + 94483 x22
       + 93585 x23 + 90458 x24 + 96363 x25 + 93630 x26 + 98379 x27 + 107323 x28
       + 92477 x29 + 109409 x30 + 97363 x31 + 101766 x32 + 103322 x33
       + 104501 x34 + 104108 x35 + 107644 x36 + 100891 x37 + 98877 x38
       + 104000 x39 + 90164 x40 + 99136 x41 + 100541 x42 + 109330 x43
       + 91484 x44 + 109962 x45 + 97426 x46 + 99812 x47 + 102438 x48
       + 99866 x49 + 97739 x50 + 97144 x51 + 109370 x52 + 102312 x53
       + 94667 x54 + 96637 x55 + 106590 x56 + 100677 x57 + 90608 x58
       + 108928 x59 + 106909 x60 + 105489 x61 + 92062 x62 + 97884 x63
       + 102735 x64 + 95453 x65 + 101213 x66 + 105938 x67 + 96984 x68
       + 97698 x69 + 107985 x70 + 102477 x71 + 93943 x72 + 91858 x73
       + 101070 x74 + 99012 x75 + 95917 x76 + 100560 x77 + 109145 x78
       + 101961 x79 + 92596 x80 + 104918 x81 + 109387 x82 + 105196 x83
       + 101239 x84 + 95620 x85 + 109555 x86 + 90961 x87 + 96907 x88
       + 91043 x89 + 108971 x90 + 105561 x91 + 99095 x92 + 101460 x93
       + 99649 x94 + 101754 x95 + 107360 x96 + 106767 x97 + 90421 x98
       + 95867 x99 + 100438 x100 + 104019 x101 + 104122 x102 + 94404 x103
       + 90879 x104 + 90661 x105 + 90712 x106 + 102278 x107 + 100342 x108
       + 99496 x109 + 97688 x110 + 92777 x111 + 109507 x112 + 92232 x113
       + 103194 x114 + 98002 x115 + 100910 x116 + 109888 x117 + 106987 x118
       + 107748 x119 + 93049 x120 + 99765 x121 + 96261 x122 + 91819 x123
       + 93938 x124 + 100135 x125 + 108986 x126 + 90444 x127 + 107186 x128
       + 91055 x129 + 99819 x130 + 103920 x131 + 91303 x132 + 97161 x133
       + 102256 x134 + 92500 x135 + 96232 x136 + 90933 x137 + 105865 x138
       + 106485 x139 + 107911 x140 + 109546 x141 + 107305 x142 + 102416 x143
       + 96642 x144 + 104464 x145 + 90710 x146 + 102635 x147 + 105222 x148
       + 104774 x149 + 106657 x150 + 93813 x151 + 106090 x152 + 95908 x153
       + 96630 x154 + 106033 x155 + 92214 x156 + 91666 x157 + 108184 x158
       + 105588 x159 + 92551 x160 + 109349 x161 + 104935 x162 + 91855 x163
       + 99674 x164 + 105339 x165 + 95072 x166 + 91449 x167 + 104487 x168
       + 91592 x169 + 102231 x170 + 91313 x171 + 90983 x172 + 92295 x173
       + 103404 x174 + 106479 x175 + 92564 x176 + 94317 x177 + 99962 x178
       + 97943 x179 + 90726 x180 + 106738 x181 + 97411 x182 + 92292 x183
       + 98850 x184 + 97456 x185 + 101182 x186 + 97561 x187 + 100525 x188
       + 97522 x189 + 100460 x190 + 102427 x191 + 109120 x192 + 91927 x193
       + 104910 x194 + 91312 x195 + 103218 x196 + 95284 x197 + 94324 x198
       + 92436 x199 + 92601 x200 + 97155 x201 + 97926 x202 + 102030 x203
       + 96046 x204 + 106379 x205 + 109782 x206 + 96661 x207 + 97254 x208
       + 91590 x209 + 106645 x210 + 100719 x211 + 104842 x212 + 109968 x213
       + 105163 x214 + 103789 x215 + 98283 x216 + 101776 x217 + 101712 x218
       + 90905 x219 + 103279 x220 + 104329 x221 + 99951 x222 + 97666 x223
       + 107234 x224 + 105783 x225 + 108751 x226 + 91662 x227 + 98348 x228
       + 96509 x229 + 106293 x230 + 91931 x231 + 90287 x232 + 103777 x233
       + 94872 x234 + 108873 x235 + 98500 x236 + 94130 x237 + 95375 x238
       + 98549 x239 + 103919 x240 + 95145 x241 + 103184 x242 + 100612 x243
       + 95313 x244 + 101164 x245 + 101672 x246 + 90266 x247 + 101050 x248
       + 93215 x249 + 100642 x250 + 104613 x251 + 102410 x252 + 106660 x253
       + 108662 x254 + 104540 x255 + 104999 x256 + 91499 x257 + 95712 x258
       + 101868 x259 + 103110 x260 + 103689 x261 + 106030 x262 + 92508 x263
       + 94771 x264 + 98437 x265 + 98559 x266 + 94110 x267 + 108674 x268
       + 101412 x269 + 105002 x270 + 99802 x271 + 107840 x272 + 94098 x273
       + 100339 x274 + 100312 x275 + 92542 x276 + 95508 x277 + 96170 x278
       + 103004 x279 + 103328 x280 + 94031 x281 + 93346 x282 + 108262 x283
       + 103891 x284 + 100413 x285 + 107080 x286 + 91183 x287 + 103093 x288
       + 95691 x289 + 105128 x290 + 99676 x291 + 95639 x292 + 96362 x293
       + 97570 x294 + 98826 x295 + 101666 x296 + 93151 x297 + 105381 x298
       + 105805 x299 + 170297 x300 + 190020 x301 + 198731 x302 + 185175 x303
       + 193115 x304 + 189332 x305 + 199112 x306 + 207536 x307 + 216073 x308
       + 200442 x309 + 204758 x310 + 216965 x311 + 189268 x312 + 218366 x313
       + 192010 x314 + 181088 x315 + 209736 x316 + 188879 x317 + 209927 x318
       + 187396 x319 + 217305 x320 + 197852 x321 + 200820 x322 + 213453 x323
       + 180145 x324 + 188486 x325 + 202062 x326 + 211794 x327 + 192867 x328
       + 202931 x329 + 211436 x330 + 210987 x331 + 194341 x332 + 195699 x333
       + 201492 x334 + 192199 x335 + 207403 x336 + 181052 x337 + 205269 x338
       + 202191 x339 + 211449 x340 + 214991 x341 + 186424 x342 + 189025 x343
       + 181428 x344 + 194718 x345 + 191197 x346 + 195870 x347 + 183035 x348
       + 204411 x349 + 217838 x350 + 181136 x351 + 183974 x352 + 185876 x353
       + 211009 x354 + 209790 x355 + 184894 x356 + 186129 x357 + 194354 x358
       + 201023 x359 + 303716 x360
Subject To
 c1:   - x7 - x10 - x16 + x28 - x30 + x31 + x32 - x38 + x41 + x51  = 0
 c2:   - x67 - x70 - x76 + x88 - x90 + x91 + x92 - x98 + x101 + x111  = -1
 c3:   - x127 - x130 - x136 + x148 - x150 + x151 + x152 - x158 + x161 + x171
        = 0
 c4:   - x187 - x190 - x196 + x208 - x210 + x211 + x212 - x218 + x221 + x231
        = 0
 c5:   - x247 - x250 - x256 + x268 - x270 + x271 + x272 - x278 + x281 + x291
        = 1
 c6:   x7 + x9 + x11 + x14 + x20 + x26 - x32 - x34 - x37 - x44 + x45 - x46
       - x47 + x52 - x55  = 0
 c7:   x67 + x69 + x71 + x74 + x80 + x86 - x92 - x94 - x97 - x104 + x105 - x106
       - x107 + x112 - x115  = 0
 c8:   x127 + x129 + x131 + x134 + x140 + x146 - x152 - x154 - x157 - x164
       + x165 - x166 - x167 + x172 - x175  = 0
 c9:   x187 + x189 + x191 + x194 + x200 + x206 - x212 - x214 - x217 - x224
       + x225 - x226 - x227 + x232 - x235  = 0
 c10:  x247 + x249 + x251 + x254 + x260 + x266 - x272 - x274 - x277 - x284
       + x285 - x286 - x287 + x292 - x295  = 0
 c11:  x1 + x3 - x5 + x10 - x12 - x20 + x22 + x23 + x25 + x35 - x42 - x48  = 1
 c12:  x61 + x63 - x65 + x70 - x72 - x80 + x82 + x83 + x85 + x95 - x102 - x108
        = 0
 c13:  x121 + x123 - x125 + x130 - x132 - x140 + x142 + x143 + x145 + x155
       - x162 - x168  = 0
 c14:  x181 + x183 - x185 + x190 - x192 - x200 + x202 + x203 + x205 + x215
       - x222 - x228  = 0
 c15:  x241 + x243 - x245 + x250 - x252 - x260 + x262 + x263 + x265 + x275
       - x282 - x288  = 0
 c16:  x4 + x8 - x27 - x35 + x38 + x42 - x45 - x49 - x53 + x54 + x55 - x59  = 0
 c17:  x64 + x68 - x87 - x95 + x98 + x102 - x105 - x109 - x113 + x114 + x115
       - x119  = 0
 c18:  x124 + x128 - x147 - x155 + x158 + x162 - x165 - x169 - x173 + x174
       + x175 - x179  = 0
 c19:  x184 + x188 - x207 - x215 + x218 + x222 - x225 - x229 - x233 + x234
       + x235 - x239  = 0
 c20:  x244 + x248 - x267 - x275 + x278 + x282 - x285 - x289 - x293 + x294
       + x295 - x299  = -1
 c21:  - x1 + x6 + x16 - x17 - x18 + x39 - x40 + x48 - x52 + x58 + x59  = 0
 c22:  - x61 + x66 + x76 - x77 - x78 + x99 - x100 + x108 - x112 + x118 + x119
        = 0
 c23:  - x121 + x126 + x136 - x137 - x138 + x159 - x160 + x168 - x172 + x178
       + x179  = 0
 c24:  - x181 + x186 + x196 - x197 - x198 + x219 - x220 + x228 - x232 + x238
       + x239  = 0
 c25:  - x241 + x246 + x256 - x257 - x258 + x279 - x280 + x288 - x292 + x298
       + x299  = 0
 c26:  x13 - x14 + x18 - x21 - x25 + x27 - x28 + x29 + x33 + x47 - x50 - x56
       - x58  = 0
 c27:  x73 - x74 + x78 - x81 - x85 + x87 - x88 + x89 + x93 + x107 - x110 - x116
       - x118  = 0
 c28:  x133 - x134 + x138 - x141 - x145 + x147 - x148 + x149 + x153 + x167
       - x170 - x176 - x178  = 0
 c29:  x193 - x194 + x198 - x201 - x205 + x207 - x208 + x209 + x213 + x227
       - x230 - x236 - x238  = -1
 c30:  x253 - x254 + x258 - x261 - x265 + x267 - x268 + x269 + x273 + x287
       - x290 - x296 - x298  = 0
 c31:  - x3 - x4 + x15 - x19 + x21 - x24 + x40 + x43 + x44 + x53  = 0
 c32:  - x63 - x64 + x75 - x79 + x81 - x84 + x100 + x103 + x104 + x113  = 0
 c33:  - x123 - x124 + x135 - x139 + x141 - x144 + x160 + x163 + x164 + x173
        = 0
 c34:  - x183 - x184 + x195 - x199 + x201 - x204 + x220 + x223 + x224 + x233
        = 0
 c35:  - x243 - x244 + x255 - x259 + x261 - x264 + x280 + x283 + x284 + x293
        = 0
 c36:  - x2 + x12 - x13 + x17 + x19 - x23 - x26 + x30 - x31 - x36 - x43 + x46
       + x50 - x54 + x60  = 0
 c37:  - x62 + x72 - x73 + x77 + x79 - x83 - x86 + x90 - x91 - x96 - x103
       + x106 + x110 - x114 + x120  = 1
 c38:  - x122 + x132 - x133 + x137 + x139 - x143 - x146 + x150 - x151 - x156
       - x163 + x166 + x170 - x174 + x180  = -1
 c39:  - x182 + x192 - x193 + x197 + x199 - x203 - x206 + x210 - x211 - x216
       - x223 + x226 + x230 - x234 + x240  = 0
 c40:  - x242 + x252 - x253 + x257 + x259 - x263 - x266 + x270 - x271 - x276
       - x283 + x286 + x290 - x294 + x300  = 0
 c41:  x2 + x5 - x8 - x11 - x15 - x22 + x24 - x29 + x34 - x39 - x41 + x49 - x57
       - x60  = -1
 c42:  x62 + x65 - x68 - x71 - x75 - x82 + x84 - x89 + x94 - x99 - x101 + x109
       - x117 - x120  = 0
 c43:  x122 + x125 - x128 - x131 - x135 - x142 + x144 - x149 + x154 - x159
       - x161 + x169 - x177 - x180  = 0
 c44:  x182 + x185 - x188 - x191 - x195 - x202 + x204 - x209 + x214 - x219
       - x221 + x229 - x237 - x240  = 0
 c45:  x242 + x245 - x248 - x251 - x255 - x262 + x264 - x269 + x274 - x279
       - x281 + x289 - x297 - x300  = 0
 c46:  - x6 - x9 - x33 + x36 + x37 - x51 + x56 + x57  = 0
 c47:  - x66 - x69 - x93 + x96 + x97 - x111 + x116 + x117  = 0
 c48:  - x126 - x129 - x153 + x156 + x157 - x171 + x176 + x177  = 1
 c49:  - x186 - x189 - x213 + x216 + x217 - x231 + x236 + x237  = 1
 c50:  - x246 - x249 - x273 + x276 + x277 - x291 + x296 + x297  = 0
 c51:  4 x1 + 4 x61 + 4 x121 + 4 x181 + 4 x241 - 11 x301 <= 0
 c52:  4 x2 + 4 x62 + 4 x122 + 4 x182 + 4 x242 - 9 x302 <= 0
 c53:  4 x3 + 4 x63 + 4 x123 + 4 x183 + 4 x243 - 10 x303 <= 0
 c54:  4 x4 + 4 x64 + 4 x124 + 4 x184 + 4 x244 - 10 x304 <= 0
 c55:  4 x5 + 4 x65 + 4 x125 + 4 x185 + 4 x245 - 10 x305 <= 0
 c56:  4 x6 + 4 x66 + 4 x126 + 4 x186 + 4 x246 - 11 x306 <= 0
 c57:  4 x7 + 4 x67 + 4 x127 + 4 x187 + 4 x247 - 10 x307 <= 0
 c58:  4 x8 + 4 x68 + 4 x128 + 4 x188 + 4 x248 - 9 x308 <= 0
 c59:  4 x9 + 4 x69 + 4 x129 + 4 x189 + 4 x249 - 10 x309 <= 0
 c60:  4 x10 + 4 x70 + 4 x130 + 4 x190 + 4 x250 - 9 x310 <= 0
 c61:  4 x11 + 4 x71 + 4 x131 + 4 x191 + 4 x251 - 11 x311 <= 0
 c62:  4 x12 + 4 x72 + 4 x132 + 4 x192 + 4 x252 - 10 x312 <= 0
 c63:  4 x13 + 4 x73 + 4 x133 + 4 x193 + 4 x253 - 9 x313 <= 0
 c64:  4 x14 + 4 x74 + 4 x134 + 4 x194 + 4 x254 - 10 x314 <= 0
 c65:  4 x15 + 4 x75 + 4 x135 + 4 x195 + 4 x255 - 10 x315 <= 0
 c66:  4 x16 + 4 x76 + 4 x136 + 4 x196 + 4 x256 - 10 x316 <= 0
 c67:  4 x17 + 4 x77 + 4 x137 + 4 x197 + 4 x257 - 10 x317 <= 0
 c68:  4 x18 + 4 x78 + 4 x138 + 4 x198 + 4 x258 - 10 x318 <= 0
 c69:  4 x19 + 4 x79 + 4 x139 + 4 x199 + 4 x259 - 9 x319 <= 0
 c70:  4 x20 + 4 x80 + 4 x140 + 4 x200 + 4 x260 - 10 x320 <= 0
 c71:  4 x21 + 4 x81 + 4 x141 + 4 x201 + 4 x261 - 9 x321 <= 0
 c72:  4 x22 + 4 x82 + 4 x142 + 4 x202 + 4 x262 - 11 x322 <= 0
 c73:  4 x23 + 4 x83 + 4 x143 + 4 x203 + 4 x263 - 9 x323 <= 0
 c74:  4 x24 + 4 x84 + 4 x144 + 4 x204 + 4 x264 - 11 x324 <= 0
 c75:  4 x25 + 4 x85 + 4 x145 + 4 x205 + 4 x265 - 10 x325 <= 0
 c76:  4 x26 + 4 x86 + 4 x146 + 4 x206 + 4 x266 - 10 x326 <= 0
 c77:  4 x27 + 4 x87 + 4 x147 + 4 x207 + 4 x267 - 9 x327 <= 0
 c78:  4 x28 + 4 x88 + 4 x148 + 4 x208 + 4 x268 - 10 x328 <= 0
 c79:  4 x29 + 4 x89 + 4 x149 + 4 x209 + 4 x269 - 9 x329 <= 0
 c80:  4 x30 + 4 x90 + 4 x150 + 4 x210 + 4 x270 - 9 x330 <= 0
 c81:  4 x31 + 4 x91 + 4 x151 + 4 x211 + 4 x271 - 9 x331 <= 0
 c82:  4 x32 + 4 x92 + 4 x152 + 4 x212 + 4 x272 - 10 x332 <= 0
 c83:  4 x33 + 4 x93 + 4 x153 + 4 x213 + 4 x273 - 10 x333 <= 0
 c84:  4 x34 + 4 x94 + 4 x154 + 4 x214 + 4 x274 - 10 x334 <= 0
 c85:  4 x35 + 4 x95 + 4 x155 + 4 x215 + 4 x275 - 11 x335 <= 0
 c86:  4 x36 + 4 x96 + 4 x156 + 4 x216 + 4 x276 - 11 x336 <= 0
 c87:  4 x37 + 4 x97 + 4 x157 + 4 x217 + 4 x277 - 10 x337 <= 0
 c88:  4 x38 + 4 x98 + 4 x158 + 4 x218 + 4 x278 - 9 x338 <= 0
 c89:  4 x39 + 4 x99 + 4 x159 + 4 x219 + 4 x279 - 9 x339 <= 0
 c90:  4 x40 + 4 x100 + 4 x160 + 4 x220 + 4 x280 - 9 x340 <= 0
 c91:  4 x41 + 4 x101 + 4 x161 + 4 x221 + 4 x281 - 10 x341 <= 0
 c92:  4 x42 + 4 x102 + 4 x162 + 4 x222 + 4 x282 - 10 x342 <= 0
 c93:  4 x43 + 4 x103 + 4 x163 + 4 x223 + 4 x283 - 10 x343 <= 0
 c94:  4 x44 + 4 x104 + 4 x164 + 4 x224 + 4 x284 - 9 x344 <= 0
 c95:  4 x45 + 4 x105 + 4 x165 + 4 x225 + 4 x285 - 10 x345 <= 0
 c96:  4 x46 + 4 x106 + 4 x166 + 4 x226 + 4 x286 - 9 x346 <= 0
 c97:  4 x47 + 4 x107 + 4 x167 + 4 x227 + 4 x287 - 9 x347 <= 0
 c98:  4 x48 + 4 x108 + 4 x168 + 4 x228 + 4 x288 - 11 x348 <= 0
 c99:  4 x49 + 4 x109 + 4 x169 + 4 x229 + 4 x289 - 10 x349 <= 0
 c100: 4 x50 + 4 x110 + 4 x170 + 4 x230 + 4 x290 - 9 x350 <= 0
 c101: 4 x51 + 4 x111 + 4 x171 + 4 x231 + 4 x291 - 10 x351 <= 0
 c102: 4 x52 + 4 x112 + 4 x172 + 4 x232 + 4 x292 - 10 x352 <= 0
 c103: 4 x53 + 4 x113 + 4 x173 + 4 x233 + 4 x293 - 9 x353 <= 0
 c104: 4 x54 + 4 x114 + 4 x174 + 4 x234 + 4 x294 - 9 x354 <= 0
 c105: 4 x55 + 4 x115 + 4 x175 + 4 x235 + 4 x295 - 10 x355 <= 0
 c106: 4 x56 + 4 x116 + 4 x176 + 4 x236 + 4 x296 - 11 x356 <= 0
 c107: 4 x57 + 4 x117 + 4 x177 + 4 x237 + 4 x297 - 10 x357 <= 0
 c108: 4 x58 + 4 x118 + 4 x178 + 4 x238 + 4 x298 - 9 x358 <= 0
 c109: 4 x59 + 4 x119 + 4 x179 + 4 x239 + 4 x299 - 11 x359 <= 0
 c110: 4 x60 + 4 x120 + 4 x180 + 4 x240 + 4 x300 - 21 x360 <= 0
Bounds
 0 <= x1 <= 1
 0 <= x2 <= 1
 0 <= x3 <= 1
 0 <= x4 <= 1
 0 <= x5 <= 1
 0 <= x6 <= 1
 0 <= x7 <= 1
 0 <= x8 <= 1
 0 <= x9 <= 1
 0 <= x10 <= 1
 0 <= x11 <= 1
 0 <= x12 <= 1
 0 <= x13 <= 1
 0 <= x14 <= 1
 0 <= x15 <= 1
 0 <= x16 <= 1
 0 <= x17 <= 1
 0 <= x18 <= 1
 0 <= x19 <= 1
 0 <= x20 <= 1
 0 <= x21 <= 1
 0 <= x22 <= 1
 0 <= x23 <= 1
 0 <= x24 <= 1
 0 <= x25 <= 1
 0 <= x26 <= 1
 0 <= x27 <= 1
 0 <= x28 <= 1
 0 <= x29 <= 1
 0 <= x30 <= 1
 0 <= x31 <= 1
 0 <= x32 <= 1
 0 <= x33 <= 1
 0 <= x34 <= 1
 0 <= x35 <= 1
 0 <= x36 <= 1
 0 <= x37 <= 1
 0 <= x38 <= 1
 0 <= x39 <= 1
 0 <= x40 <= 1
 0 <= x41 <= 1
 0 <= x42 <= 1
 0 <= x43 <= 1
 0 <= x44 <= 1
 0 <= x45 <= 1
 0 <= x46 <= 1
 0 <= x47 <= 1
 0 <= x48 <= 1
 0 <= x49 <= 1
 0 <= x50 <= 1
 0 <= x51 <= 1
 0 <= x52 <= 1
 0 <= x53 <= 1
 0 <= x54 <= 1
 0 <= x55 <= 1
 0 <= x56 <= 1
 0 <= x57 <= 1
 0 <= x58 <= 1
 0 <= x59 <= 1
 0 <= x60 <= 1
 0 <= x61 <= 1
 0 <= x62 <= 1
 0 <= x63 <= 1
 0 <= x64 <= 1
 0 <= x65 <= 1
 0 <= x66 <= 1
 0 <= x67 <= 1
 0 <= x68 <= 1
 0 <= x69 <= 1
 0 <= x70 <= 1
 0 <= x71 <= 1
 0 <= x72 <= 1
 0 <= x73 <= 1
 0 <= x74 <= 1
 0 <= x75 <= 1
 0 <= x76 <= 1
 0 <= x77 <= 1
 0 <= x78 <= 1
 0 <= x79 <= 1
 0 <= x80 <= 1
 0 <= x81 <= 1
 0 <= x82 <= 1
 0 <= x83 <= 1
 0 <= x84 <= 1
 0 <= x85 <= 1
 0 <= x86 <= 1
 0 <= x87 <= 1
 0 <= x88 <= 1
 0 <= x89 <= 1
 0 <= x90 <= 1
 0 <= x91 <= 1
 0 <= x92 <= 1
 0 <= x93 <= 1
 0 <= x94 <= 1
 0 <= x95 <= 1
 0 <= x96 <= 1
 0 <= x97 <= 1
 0 <= x98 <= 1
 0 <= x99 <= 1
 0 <= x100 <= 1
 0 <= x101 <= 1
 0 <= x102 <= 1
 0 <= x103 <= 1
 0 <= x104 <= 1
 0 <= x105 <= 1
 0 <= x106 <= 1
 0 <= x107 <= 1
 0 <= x108 <= 1
 0 <= x109 <= 1
 0 <= x110 <= 1
 0 <= x111 <= 1
 0 <= x112 <= 1
 0 <= x113 <= 1
 0 <= x114 <= 1
 0 <= x115 <= 1
 0 <= x116 <= 1
 0 <= x117 <= 1
 0 <= x118 <= 1
 0 <= x119 <= 1
 0 <= x120 <= 1
 0 <= x121 <= 1
 0 <= x122 <= 1
 0 <= x123 <= 1
 0 <= x124 <= 1
 0 <= x125 <= 1
 0 <= x126 <= 1
 0 <= x127 <= 1
 0 <= x128 <= 1
 0 <= x129 <= 1
 0 <= x130 <= 1
 0 <= x131 <= 1
 0 <= x132 <= 1
 0 <= x133 <= 1
 0 <= x134 <= 1
 0 <= x135 <= 1
 0 <= x136 <= 1
 0 <= x137 <= 1
 0 <= x138 <= 1
 0 <= x139 <= 1
 0 <= x140 <= 1
 0 <= x141 <= 1
 0 <= x142 <= 1
 0 <= x143 <= 1
 0 <= x144 <= 1
 0 <= x145 <= 1
 0 <= x146 <= 1
 0 <= x147 <= 1
 0 <= x148 <= 1
 0 <= x149 <= 1
 0 <= x150 <= 1
 0 <= x151 <= 1
 0 <= x152 <= 1
 0 <= x153 <= 1
 0 <= x154 <= 1
 0 <= x155 <= 1
 0 <= x156 <= 1
 0 <= x157 <= 1
 0 <= x158 <= 1
 0 <= x159 <= 1
 0 <= x160 <= 1
 0 <= x161 <= 1
 0 <= x162 <= 1
 0 <= x163 <= 1
 0 <= x164 <= 1
 0 <= x165 <= 1
 0 <= x166 <= 1
 0 <= x167 <= 1
 0 <= x168 <= 1
 0 <= x169 <= 1
 0 <= x170 <= 1
 0 <= x171 <= 1
 0 <= x172 <= 1
 0 <= x173 <= 1
 0 <= x174 <= 1
 0 <= x175 <= 1
 0 <= x176 <= 1
 0 <= x177 <= 1
 0 <= x178 <= 1
 0 <= x179 <= 1
 0 <= x180 <= 1
 0 <= x181 <= 1
 0 <= x182 <= 1
 0 <= x183 <= 1
 0 <= x184 <= 1
 0 <= x185 <= 1
 0 <= x186 <= 1
 0 <= x187 <= 1
 0 <= x188 <= 1
 0 <= x189 <= 1
 0 <= x190 <= 1
 0 <= x191 <= 1
 0 <= x192 <= 1
 0 <= x193 <= 1
 0 <= x194 <= 1
 0 <= x195 <= 1
 0 <= x196 <= 1
 0 <= x197 <= 1
 0 <= x198 <= 1
 0 <= x199 <= 1
 0 <= x200 <= 1
 0 <= x201 <= 1
 0 <= x202 <= 1
 0 <= x203 <= 1
 0 <= x204 <= 1
 0 <= x205 <= 1
 0 <= x206 <= 1
 0 <= x207 <= 1
 0 <= x208 <= 1
 0 <= x209 <= 1
 0 <= x210 <= 1
 0 <= x211 <= 1
 0 <= x212 <= 1
 0 <= x213 <= 1
 0 <= x214 <= 1
 0 <= x215 <= 1
 0 <= x216 <= 1
 0 <= x217 <= 1
 0 <= x218 <= 1
 0 <= x219 <= 1
 0 <= x220 <= 1
 0 <= x221 <= 1
 0 <= x222 <= 1
 0 <= x223 <= 1
 0 <= x224 <= 1
 0 <= x225 <= 1
 0 <= x226 <= 1
 0 <= x227 <= 1
 0 <= x228 <= 1
 0 <= x229 <= 1
 0 <= x230 <= 1
 0 <= x231 <= 1
 0 <= x232 <= 1
 0 <= x233 <= 1
 0 <= x234 <= 1
 0 <= x235 <= 1
 0 <= x236 <= 1
 0 <= x237 <= 1
 0 <= x238 <= 1
 0 <= x239 <= 1
 0 <= x240 <= 1
 0 <= x241 <= 1
 0 <= x242 <= 1
 0 <= x243 <= 1
 0 <= x244 <= 1
 0 <= x245 <= 1
 0 <= x246 <= 1
 0 <= x247 <= 1
 0 <= x248 <= 1
 0 <= x249 <= 1
 0 <= x250 <= 1
 0 <= x251 <= 1
 0 <= x252 <= 1
 0 <= x253 <= 1
 0 <= x254 <= 1
 0 <= x255 <= 1
 0 <= x256 <= 1
 0 <= x257 <= 1
 0 <= x258 <= 1
 0 <= x259 <= 1
 0 <= x260 <= 1
 0 <= x261 <= 1
 0 <= x262 <= 1
 0 <= x263 <= 1
 0 <= x264 <= 1
 0 <= x265 <= 1
 0 <= x266 <= 1
 0 <= x267 <= 1
 0 <= x268 <= 1
 0 <= x269 <= 1
 0 <= x270 <= 1
 0 <= x271 <= 1
 0 <= x272 <= 1
 0 <= x273 <= 1
 0 <= x274 <= 1
 0 <= x275 <= 1
 0 <= x276 <= 1
 0 <= x277 <= 1
 0 <= x278 <= 1
 0 <= x279 <= 1
 0 <= x280 <= 1
 0 <= x281 <= 1
 0 <= x282 <= 1
 0 <= x283 <= 1
 0 <= x284 <= 1
 0 <= x285 <= 1
 0 <= x286 <= 1
 0 <= x287 <= 1
 0 <= x288 <= 1
 0 <= x289 <= 1
 0 <= x290 <= 1
 0 <= x291 <= 1
 0 <= x292 <= 1
 0 <= x293 <= 1
 0 <= x294 <= 1
 0 <= x295 <= 1
 0 <= x296 <= 1
 0 <= x297 <= 1
 0 <= x298 <= 1
 0 <= x299 <= 1
 0 <= x300 <= 1
 0 <= x301 <= 1
 0 <= x302 <= 1
 0 <= x303 <= 1
 0 <= x304 <= 1
 0 <= x305 <= 1
 0 <= x306 <= 1
 0 <= x307 <= 1
 0 <= x308 <= 1
 0 <= x309 <= 1
 0 <= x310 <= 1
 0 <= x311 <= 1
 0 <= x312 <= 1
 0 <= x313 <= 1
 0 <= x314 <= 1
 0 <= x315 <= 1
 0 <= x316 <= 1
 0 <= x317 <= 1
 0 <= x318 <= 1
 0 <= x319 <= 1
 0 <= x320 <= 1
 0 <= x321 <= 1
 0 <= x322 <= 1
 0 <= x323 <= 1
 0 <= x324 <= 1
 0 <= x325 <= 1
 0 <= x326 <= 1
 0 <= x327 <= 1
 0 <= x328 <= 1
 0 <= x329 <= 1
 0 <= x330 <= 1
 0 <= x331 <= 1
 0 <= x332 <= 1
 0 <= x333 <= 1
 0 <= x334 <= 1
 0 <= x335 <= 1
 0 <= x336 <= 1
 0 <= x337 <= 1
 0 <= x338 <= 1
 0 <= x339 <= 1
 0 <= x340 <= 1
 0 <= x341 <= 1
 0 <= x342 <= 1
 0 <= x343 <= 1
 0 <= x344 <= 1
 0 <= x345 <= 1
 0 <= x346 <= 1
 0 <= x347 <= 1
 0 <= x348 <= 1
 0 <= x349 <= 1
 0 <= x350 <= 1
 0 <= x351 <= 1
 0 <= x352 <= 1
 0 <= x353 <= 1
 0 <= x354 <= 1
 0 <= x355 <= 1
 0 <= x356 <= 1
 0 <= x357 <= 1
 0 <= x358 <= 1
 0 <= x359 <= 1
 0 <= x360 <= 1
Binaries
 x301  x302  x303  x304  x305  x306  x307  x308  x309  x310  x311  x312  x313 
 x314  x315  x316  x317  x318  x319  x320  x321  x322  x323  x324  x325  x326 
 x327  x328  x329  x330  x331  x332  x333  x334  x335  x336  x337  x338  x339 
 x340  x341  x342  x343  x344  x345  x346  x347  x348  x349  x350  x351  x352 
 x353  x354  x355  x356  x357  x358  x359  x360 
End
